NAME : rnd38_20.tsp
TYPE : TSP
DIMENSION : 20
EDGE_WEIGHT_TYPE : EUC_2D
NODE_COORD_SECTION
0 289 693
1 47 793
2 417 81
3 59 633
4 927 475
5 197 588
6 374 482
7 317 645
8 702 759
9 720 79
10 750 519
11 842 117
12 297 443
13 889 399
14 720 573
15 683 59
16 535 166
17 391 995
18 964 657
19 568 450
